

(assert (forall ((_for_it_85 Int) (kfdia Int) (kidia Int) (klev Int) (klon Int) (ncldtop Int))
  (=>
    (and
      (<= 0 _for_it_85)
      (<= (+ _for_it_85 1) 4)
      (<= kidia (+ kfdia (- 1)))
      (<= ncldtop (+ klev (- 1)))
      (not (or (exists ((_for_it_86_0 Int)(_for_it_88_1 Int)) (and (= _for_it_86_0 _for_it_88_1) (<= _for_it_86_0 (+ kfdia (- 1))) (<= (+ kidia (- 1)) _for_it_86_0) (<= _for_it_88_1 (+ kfdia (- 1))) (<= (+ kidia (- 1)) _for_it_88_1))) (exists ((_for_it_89_0 Int)(_for_it_89_1 Int)(_for_it_90_1 Int)(_for_it_90_0 Int)) (and (<= _for_it_89_1 (+ kfdia (- 1))) (<= (+ kidia (- 1)) _for_it_89_1) (<= 0 _for_it_90_0) (<= _for_it_90_0 4) (<= 0 _for_it_90_1) (<= _for_it_90_1 4) (<= _for_it_89_0 (+ kfdia (- 1))) (<= (+ kidia (- 1)) _for_it_89_0))) (exists ((_for_it_89_0 Int)(_for_it_88_1 Int)) (and (= _for_it_89_0 _for_it_88_1) (<= _for_it_88_1 (+ kfdia (- 1))) (<= (+ kidia (- 1)) _for_it_88_1) (<= _for_it_89_0 (+ kfdia (- 1))) (<= (+ kidia (- 1)) _for_it_89_0))) (exists ((_for_it_89_0 Int)(_for_it_88_1 Int)) (and (<= _for_it_88_1 (+ kfdia (- 1))) (<= (+ kidia (- 1)) _for_it_88_1) (<= _for_it_89_0 (+ kfdia (- 1))) (<= (+ kidia (- 1)) _for_it_89_0))) (exists ((_for_it_89_1 Int)(_for_it_88_0 Int)) (and (<= _for_it_89_1 (+ kfdia (- 1))) (<= (+ kidia (- 1)) _for_it_89_1) (<= _for_it_88_0 (+ kfdia (- 1))) (<= (+ kidia (- 1)) _for_it_88_0) (= _for_it_88_0 _for_it_89_1))) (exists ((_for_it_88_1 Int)(_for_it_88_0 Int)) (and (<= _for_it_88_0 (+ kfdia (- 1))) (<= (+ kidia (- 1)) _for_it_88_0) (= _for_it_88_0 _for_it_88_1) (<= _for_it_88_1 (+ kfdia (- 1))) (<= (+ kidia (- 1)) _for_it_88_1))) (exists ((_for_it_89_1 Int)(_for_it_88_0 Int)) (and (<= _for_it_89_1 (+ kfdia (- 1))) (<= _for_it_88_0 (+ kfdia (- 1))) (<= (+ kidia (- 1)) _for_it_88_0) (<= (+ kidia (- 1)) _for_it_89_1))) (exists ((_for_it_88_1 Int)(_for_it_88_0 Int)) (and (<= _for_it_88_1 (+ kfdia (- 1))) (<= _for_it_88_0 (+ kfdia (- 1))) (<= (+ kidia (- 1)) _for_it_88_0) (<= (+ kidia (- 1)) _for_it_88_1))) (exists ((_for_it_86_1 Int)(_for_it_88_0 Int)) (and (<= _for_it_88_0 (+ kfdia (- 1))) (<= _for_it_86_1 (+ kfdia (- 1))) (<= (+ kidia (- 1)) _for_it_88_0) (<= (+ kidia (- 1)) _for_it_86_1))) (exists ((_for_it_86_0 Int)(tmp_parfor_0_1 Int)(_for_it_86_1 Int)) (and (= _for_it_86_0 _for_it_86_1) (<= _for_it_86_1 (+ kfdia (- 1))) (<= (+ kidia (- 1)) _for_it_86_1) (<= _for_it_86_0 (+ kfdia (- 1))) (<= (+ kidia (- 1)) _for_it_86_0) (<= 0 tmp_parfor_0_1) (<= tmp_parfor_0_1 4))) (exists ((_for_it_86_0 Int)(tmp_parfor_0_1 Int)(_for_it_86_1 Int)(tmp_parfor_0_0 Int)) (and (<= tmp_parfor_0_0 4) (= _for_it_86_0 _for_it_86_1) (<= _for_it_86_1 (+ kfdia (- 1))) (<= (+ kidia (- 1)) _for_it_86_1) (<= _for_it_86_0 (+ kfdia (- 1))) (<= (+ kidia (- 1)) _for_it_86_0) (<= 0 tmp_parfor_0_1) (<= tmp_parfor_0_1 4) (<= 0 tmp_parfor_0_0))) (exists ((_for_it_86_0 Int)(_for_it_87_1 Int)(_for_it_87_0 Int)(_for_it_86_1 Int)) (and (<= 0 _for_it_87_1) (<= _for_it_87_1 4) (= _for_it_86_0 _for_it_86_1) (= _for_it_87_0 _for_it_87_1) (<= _for_it_86_1 (+ kfdia (- 1))) (<= (+ kidia (- 1)) _for_it_86_1) (<= _for_it_86_0 (+ kfdia (- 1))) (<= (+ kidia (- 1)) _for_it_86_0) (<= 0 _for_it_87_0) (<= _for_it_87_0 4))) (exists ((_for_it_86_0 Int)(_for_it_89_1 Int)) (and (<= _for_it_89_1 (+ kfdia (- 1))) (<= (+ kidia (- 1)) _for_it_86_0) (<= (+ kidia (- 1)) _for_it_89_1) (<= _for_it_86_0 (+ kfdia (- 1))))) (exists ((_for_it_86_1 Int)(_for_it_88_0 Int)) (and (<= _for_it_86_1 (+ kfdia (- 1))) (<= (+ kidia (- 1)) _for_it_86_1) (<= _for_it_88_0 (+ kfdia (- 1))) (<= (+ kidia (- 1)) _for_it_88_0) (= _for_it_88_0 _for_it_86_1))) (exists ((_for_it_86_0 Int)(_for_it_86_1 Int)) (and (<= _for_it_86_0 (+ kfdia (- 1))) (<= (+ kidia (- 1)) _for_it_86_0) (<= _for_it_86_1 (+ kfdia (- 1))) (<= (+ kidia (- 1)) _for_it_86_1))) (exists ((_for_it_89_0 Int)(_for_it_86_1 Int)) (and (<= _for_it_89_0 (+ kfdia (- 1))) (<= _for_it_86_1 (+ kfdia (- 1))) (<= (+ kidia (- 1)) _for_it_89_0) (<= (+ kidia (- 1)) _for_it_86_1))) (exists ((_for_it_86_0 Int)(_for_it_88_1 Int)) (and (<= _for_it_86_0 (+ kfdia (- 1))) (<= (+ kidia (- 1)) _for_it_86_0) (<= (+ kidia (- 1)) _for_it_88_1) (<= _for_it_88_1 (+ kfdia (- 1))))) (exists ((_for_it_89_0 Int)(_for_it_89_1 Int)) (and (<= _for_it_89_1 (+ kfdia (- 1))) (<= (+ kidia (- 1)) _for_it_89_1) (<= _for_it_89_0 (+ kfdia (- 1))) (<= (+ kidia (- 1)) _for_it_89_0))) (exists ((_for_it_86_0 Int)(_for_it_86_1 Int)) (and (= _for_it_86_0 _for_it_86_1) (<= _for_it_86_1 (+ kfdia (- 1))) (<= (+ kidia (- 1)) _for_it_86_1) (<= _for_it_86_0 (+ kfdia (- 1))) (<= (+ kidia (- 1)) _for_it_86_0))) (exists ((_for_it_86_0 Int)(_for_it_86_1 Int)(tmp_parfor_0_0 Int)) (and (<= tmp_parfor_0_0 4) (= _for_it_86_0 _for_it_86_1) (<= _for_it_86_1 (+ kfdia (- 1))) (<= (+ kidia (- 1)) _for_it_86_1) (<= _for_it_86_0 (+ kfdia (- 1))) (<= (+ kidia (- 1)) _for_it_86_0) (<= 0 tmp_parfor_0_0)))))
    )
    false
  )
))

(check-sat)